% File represents an instance of a Composite Structure problem to be solved by a CP framework
% Created on 2025-03-25 14:06:15.092
T = 58;
n = 36;
m = 60;
edges = [(1, 2),
(7, 8),
(13, 14),
(19, 20),
(25, 26),
(31, 32),
(2, 3),
(8, 9),
(14, 15),
(20, 21),
(26, 27),
(32, 33),
(4, 3),
(10, 9),
(15, 16),
(21, 22),
(27, 28),
(34, 33),
(5, 4),
(10, 11),
(16, 17),
(22, 23),
(28, 29),
(34, 35),
(5, 6),
(11, 12),
(18, 17),
(24, 23),
(29, 30),
(35, 36),
(7, 1),
(13, 7),
(19, 13),
(25, 19),
(25, 31),
(8, 2),
(14, 8),
(20, 14),
(26, 20),
(26, 32),
(9, 3),
(15, 9),
(21, 15),
(27, 21),
(33, 27),
(10, 4),
(10, 16),
(22, 16),
(28, 22),
(34, 28),
(5, 11),
(11, 17),
(23, 17),
(29, 23),
(35, 29),
(12, 6),
(18, 12),
(24, 18),
(24, 30),
(36, 30)];
counts = [|8, 6, 2, 4,
|4, 6, 2, 2,
|2, 2, 2, 2,
|4, 4, 4, 6,
|4, 6, 4, 14,
|4, 6, 2, 6,
|8, 12, 4, 6,
|6, 6, 4, 6,
|2, 6, 4, 6,
|4, 6, 4, 12,
|4, 6, 2, 12,
|4, 6, 2, 8,
|8, 14, 4, 12,
|6, 8, 4, 12,
|4, 8, 4, 6,
|4, 6, 4, 6,
|4, 6, 2, 6,
|4, 8, 2, 12,
|8, 14, 4, 22,
|8, 14, 4, 14,
|8, 14, 4, 6,
|6, 12, 4, 6,
|6, 10, 4, 6,
|6, 10, 4, 12,
|8, 18, 6, 26,
|8, 16, 6, 20,
|8, 16, 4, 12,
|8, 12, 4, 12,
|6, 10, 4, 12,
|4, 10, 2, 6,
|8, 18, 6, 18,
|8, 16, 6, 18,
|8, 16, 4, 16,
|8, 18, 4, 16,
|6, 10, 4, 16,
|4, 10, 2, 14|];
